p tdp 20 53
1 2
1 9
1 11
1 12
1 13
1 14
1 20
2 6
2 7
2 8
2 9
2 12
3 4
3 5
3 6
3 7
3 9
3 10
3 19
4 13
4 14
4 17
4 20
5 8
5 9
5 19
6 9
6 10
6 15
6 17
6 18
6 20
7 8
7 11
8 9
8 18
9 10
9 11
9 12
9 15
10 11
10 12
10 16
10 17
11 14
11 18
12 20
13 20
15 16
16 17
16 20
17 18
17 20
